 vasp.5.4.4.18Apr17-6-g9f103f2a35 (build Nov 08 2017 13:07:49) complex

 executed on             LinuxIFC date 2017.11.08  14:14:42

 INCAR:
 POTCAR:    PAW_PBE Li_sv 10Sep2004
 POTCAR:    PAW_PBE O 08Apr2002
 POTCAR:    PAW_PBE V_sv 02Aug2007

 POTCAR:    PAW_PBE Li_sv 10Sep2004

 POTCAR:    PAW_PBE O 08Apr2002

 POTCAR:    PAW_PBE V_sv 02Aug2007

 Optimization of the real space projectors (new method)

 maximal supplied QI-value         = 22.11
 optimisation between [QCUT,QGAM] = [ 13.04, 26.09] = [ 47.65,190.61] Ry
 Optimized for a Real-space Cutoff    1.02 Angstroem

   l    n(q)    QCUT    max X(q) W(low)/X(q) W(high)/X(q)  e(spline)
   0      8    13.045    10.506    0.52E-04    0.60E-04    0.12E-07
   0      8    13.045     8.367    0.12E-03    0.13E-03    0.25E-07
   1      7    13.045     8.983    0.15E-03    0.54E-04    0.16E-06
 Optimization of the real space projectors (new method)

[...]

   l    n(q)    QCUT    max X(q) W(low)/X(q) W(high)/X(q)  e(spline)
   0      9    12.873    20.381    0.19E-03    0.10E-03    0.26E-06
   0      9    12.873    15.268    0.20E-03    0.11E-03    0.28E-06
   1      8    12.873     5.964    0.13E-03    0.17E-03    0.24E-06
   1      8    12.873     5.382    0.11E-03    0.15E-03    0.21E-06
 Optimization of the real space projectors (new method)

 maximal supplied QI-value         = 16.25
 optimisation between [QCUT,QGAM] = [ 13.00, 26.00] = [ 47.33,189.34] Ry
 Optimized for a Real-space Cutoff    1.33 Angstroem

   l    n(q)    QCUT    max X(q) W(low)/X(q) W(high)/X(q)  e(spline)
   0     10    13.001     2.784    0.61E-05    0.34E-05    0.68E-07
   0     10    13.001    21.205    0.19E-04    0.73E-05    0.30E-07
   1     10    13.001     3.152    0.53E-04    0.63E-04    0.66E-07
   1     10    13.001     5.587    0.20E-03    0.20E-03    0.28E-06
   2      9    13.001    55.619    0.22E-03    0.17E-03    0.20E-06
   2      9    13.001    52.293    0.22E-03    0.16E-03    0.20E-06
  PAW_PBE Li_sv 10Sep2004               :
  PAW_PBE O 08Apr2002                   :
  PAW_PBE V_sv 02Aug2007                :

 POSCAR: Li O V
  positions in direct lattice
 exchange correlation table for  LEXCH =        8
   RHO(1)=    0.500       N(1)  =     2000
   RHO(2)=  100.500       N(2)  =     4000

 ion  position               nearest neighbor table
   1  0.258  0.251  0.011- 137 1.99 113 2.06  97 2.07  85 2.10  61 2.18  77 2.19
   2  0.757  0.250  0.011- 138 1.98 114 2.07  98 2.07  86 2.10  62 2.18  78 2.18
   3  0.257  0.750  0.011- 139 1.98 115 2.07  99 2.07  87 2.10  63 2.18  79 2.18
   4  0.757  0.750  0.011- 140 1.98 116 2.07 100 2.07  88 2.10  64 2.18  80 2.18
   5  0.257  0.250  0.511- 141 1.98 117 2.07 101 2.07  81 2.10  57 2.18  73 2.18
   6  0.757  0.250  0.511- 142 1.98 118 2.07 102 2.07  82 2.10  58 2.18  74 2.18
   7  0.257  0.750  0.511- 143 1.98 119 2.07 103 2.07  83 2.10  59 2.18  75 2.18
   8  0.757  0.750  0.511- 144 1.98 120 2.07 104 2.07  84 2.10  60 2.18  76 2.18
   9  0.007  0.000  0.011- 130 1.98 107 2.07 121 2.07  93 2.10  54 2.18  72 2.18
  10  0.507  0.000  0.011- 129 1.98 108 2.07 122 2.07  94 2.10  53 2.18  71 2.18
  11  0.007  0.500  0.011- 132 1.98 123 2.07 105 2.07  95 2.10  56 2.18  70 2.18
  12  0.507  0.500  0.011- 131 1.98 124 2.07 106 2.07  96 2.10  55 2.18  69 2.18
  13  0.007  0.000  0.511- 134 1.98 111 2.07 125 2.07  89 2.10  50 2.18  68 2.18
  14  0.507  0.000  0.511- 133 1.98 112 2.07 126 2.07  90 2.10  49 2.18  67 2.18
  15  0.007  0.500  0.511- 136 1.98 127 2.07 109 2.07  91 2.10  52 2.18  66 2.18
  16  0.507  0.500  0.511- 135 1.98 128 2.07 110 2.07  92 2.10  51 2.18  65 2.18
  17  0.497  0.335  0.001- 138 2.00  69 2.05  62 2.08  85 2.09 106 2.15 113 2.16
  18  0.997  0.335  0.001- 137 2.00  70 2.05  61 2.08  86 2.09 105 2.15 114 2.16
  19  0.497  0.835  0.001- 140 2.00  71 2.05  64 2.08  87 2.09 108 2.15 115 2.16
  20  0.997  0.835  0.001- 139 2.00  72 2.05  63 2.08  88 2.09 107 2.15 116 2.16
  21  0.497  0.335  0.501- 142 2.00  65 2.05  58 2.08  81 2.09 110 2.15 117 2.16
  22  0.997  0.335  0.501- 141 2.00  66 2.05  57 2.08  82 2.09 109 2.15 118 2.16
  23  0.497  0.835  0.501- 144 2.00  67 2.05  60 2.08  83 2.09 112 2.15 119 2.16
  24  0.997  0.835  0.501- 143 2.00  68 2.05  59 2.08  84 2.09 111 2.15 120 2.16
  25  0.247  0.085  0.001- 129 2.00  77 2.05  53 2.08  93 2.09  97 2.15 121 2.16
  26  0.747  0.085  0.001- 130 2.00  78 2.05  54 2.08  94 2.09  98 2.15 122 2.16
  27  0.247  0.585  0.001- 131 2.00  79 2.05  55 2.08  95 2.09  99 2.15 123 2.16
  28  0.747  0.585  0.001- 132 2.00  80 2.05  56 2.08  96 2.09 100 2.15 124 2.16
  29  0.247  0.085  0.501- 133 2.00  73 2.05  49 2.08  89 2.09 101 2.15 125 2.16
  30  0.747  0.085  0.501- 134 2.00  74 2.05  50 2.08  90 2.09 102 2.15 126 2.16
  31  0.247  0.585  0.501- 135 2.00  75 2.05  51 2.08  91 2.09 103 2.15 127 2.16
  32  0.747  0.585  0.501- 136 2.00  76 2.05  52 2.08  92 2.09 104 2.15 128 2.16
  33  0.497  0.165  0.001- 138 2.00  53 2.05  78 2.08  85 2.09 122 2.15  97 2.16
  34  0.997  0.165  0.001- 137 2.00  54 2.05  77 2.08  86 2.09 121 2.15  98 2.16
  35  0.497  0.665  0.001- 140 2.00  55 2.05  80 2.08  87 2.09 124 2.15  99 2.16
  36  0.997  0.665  0.001- 139 2.00  56 2.05  79 2.08  88 2.09 123 2.15 100 2.16
  37  0.497  0.165  0.501- 142 2.00  49 2.05  74 2.08  81 2.09 126 2.15 101 2.16
  38  0.997  0.165  0.501- 141 2.00  50 2.05  73 2.08  82 2.09 125 2.15 102 2.16
  39  0.497  0.665  0.501- 144 2.00  51 2.05  76 2.08  83 2.09 128 2.15 103 2.16
  40  0.997  0.665  0.501- 143 2.00  52 2.05  75 2.08  84 2.09 127 2.15 104 2.16
  41  0.247  0.415  0.001- 131 2.00  61 2.05  69 2.08  95 2.09 113 2.15 105 2.16
  42  0.747  0.415  0.001- 132 2.00  62 2.05  70 2.08  96 2.09 114 2.15 106 2.16
  43  0.247  0.915  0.001- 129 2.00  63 2.05  71 2.08  93 2.09 115 2.15 107 2.16
  44  0.747  0.915  0.001- 130 2.00  64 2.05  72 2.08  94 2.09 116 2.15 108 2.16
  45  0.247  0.415  0.501- 135 2.00  57 2.05  65 2.08  91 2.09 117 2.15 109 2.16
  46  0.747  0.415  0.501- 136 2.00  58 2.05  66 2.08  92 2.09 118 2.15 110 2.16
  47  0.247  0.915  0.501- 133 2.00  59 2.05  67 2.08  89 2.09 119 2.15 111 2.16
  48  0.747  0.915  0.501- 134 2.00  60 2.05  68 2.08  90 2.09 120 2.15 112 2.16
  49  0.370  0.084  0.371- 161 1.94 177 1.94  37 2.05  29 2.08  14 2.18 153 2.18
  50  0.870  0.084  0.371- 162 1.94 178 1.94  38 2.05  30 2.08  13 2.18 154 2.18
  51  0.370  0.584  0.371- 163 1.94 179 1.94  39 2.05  31 2.08  16 2.18 155 2.18
  52  0.870  0.584  0.371- 164 1.94 180 1.94  40 2.05  32 2.08  15 2.18 156 2.18
  53  0.370  0.084  0.871- 165 1.94 181 1.94  33 2.05  25 2.08  10 2.18 157 2.18
  54  0.870  0.084  0.871- 166 1.94 182 1.94  34 2.05  26 2.08   9 2.18 158 2.18
  55  0.370  0.584  0.871- 167 1.94 183 1.94  35 2.05  27 2.08  12 2.18 159 2.18
  56  0.870  0.584  0.871- 168 1.94 184 1.94  36 2.05  28 2.08  11 2.18 160 2.18
  57  0.120  0.334  0.371- 169 1.94 185 1.94  45 2.05  22 2.08   5 2.18 146 2.18
  58  0.620  0.334  0.371- 170 1.94 186 1.94  46 2.05  21 2.08   6 2.18 145 2.18
  59  0.120  0.834  0.371- 171 1.94 187 1.94  47 2.05  24 2.08   7 2.18 148 2.18
  60  0.620  0.834  0.371- 172 1.94 188 1.94  48 2.05  23 2.08   8 2.18 147 2.18
[...]
 131  0.368  0.500  0.115- 145 1.97 163 1.97 179 1.97  12 1.98  41 2.00  27 2.00
 132  0.868  0.500  0.115- 146 1.97 164 1.97 180 1.97  11 1.98  42 2.00  28 2.00
 133  0.368  0.000  0.615- 151 1.97 165 1.97 181 1.97  14 1.98  47 2.00  29 2.00
 134  0.868  0.000  0.615- 152 1.97 166 1.97 182 1.97  13 1.98  48 2.00  30 2.00
 135  0.368  0.500  0.615- 149 1.97 167 1.97 183 1.97  16 1.98  45 2.00  31 2.00
 136  0.868  0.500  0.615- 150 1.97 168 1.97 184 1.97  15 1.98  46 2.00  32 2.00
 137  0.118  0.250  0.115- 153 1.97 169 1.97 185 1.97   1 1.99  34 2.00  18 2.00
 138  0.618  0.250  0.115- 154 1.97 170 1.97 186 1.97   2 1.98  33 2.00  17 2.00
 139  0.118  0.750  0.115- 155 1.97 171 1.97 187 1.97   3 1.98  36 2.00  20 2.00
 140  0.618  0.750  0.115- 156 1.97 172 1.97 188 1.97   4 1.98  35 2.00  19 2.00
 141  0.118  0.250  0.615- 157 1.97 173 1.97 189 1.97   5 1.98  38 2.00  22 2.00
 142  0.618  0.250  0.615- 158 1.97 174 1.97 190 1.97   6 1.98  37 2.00  21 2.00
 143  0.118  0.750  0.615- 159 1.97 175 1.97 191 1.97   7 1.98  40 2.00  24 2.00
 144  0.618  0.750  0.615- 160 1.97 176 1.97 192 1.97   8 1.98  39 2.00  23 2.00
 145  0.486  0.428  0.252-  65 1.94  92 1.94 131 1.97 113 2.05 106 2.06  58 2.18 179 2.44 163 2.44

 146  0.986  0.428  0.252-  66 1.94  91 1.94 132 1.97 114 2.05 105 2.06  57 2.18 180 2.44 164 2.44

[...]

 192  0.521  0.750  0.753-  64 1.94  80 1.94 144 1.97 119 2.06 103 2.06  87 2.19 160 2.44 176 2.44

  LATTYP: Found a simple monoclinic cell.
 ALAT       =    11.9341103114
 B/A-ratio  =     1.4140480455
 C/A-ratio  =     1.6986113722
 COS(beta)  =    -0.9150661427

  Lattice vectors:

 A1 = (  -6.5077649600,   0.0000000000, -10.0035985600)
 A2 = (   0.0000000000, -16.8754053600,   0.0000000000)
 A3 = (   3.2622614000,   0.0000000000,  20.0071971200)

Analysis of symmetry for initial positions (statically):
 Subroutine PRICEL returns:
 Original cell was already a primitive cell.

 Routine SETGRP: Setting up the symmetry group for a
 simple monoclinic supercell.

 Subroutine GETGRP returns: Found  1 space group operations
 (whereof  1 operations were pure point group operations)
 out of a pool of  4 trial point group operations.

The static configuration has the point symmetry C_1 .

Analysis of symmetry for dynamics (positions and initial velocities):
 Subroutine PRICEL returns:
 Original cell was already a primitive cell.

 Routine SETGRP: Setting up the symmetry group for a
 simple monoclinic supercell.

 Subroutine GETGRP returns: Found  1 space group operations
 (whereof  1 operations were pure point group operations)
 out of a pool of  4 trial point group operations.

The dynamic configuration has the point symmetry C_1 .

 Subroutine INISYM returns: Found  1 space group operations
 (whereof  1 operations are pure point group operations),
 and found     1 'primitive' translations

 KPOINTS: Automatic mesh

Automatic generation of k-mesh.
Space group operators:
 irot       det(A)        alpha          n_x          n_y          n_z        tau_x        tau_y        tau_z
    1     1.000000     0.000000     1.000000     0.000000     0.000000     0.000000     0.000000     0.000000

 Subroutine IBZKPT returns following result:

 Found     14 irreducible k-points:

 Following reciprocal coordinates:
            Coordinates               Weight
  0.000000  0.000000  0.000000      1.000000
  0.333333  0.000000 -0.000000      2.000000
  0.000000  0.333333  0.000000      2.000000
  0.333333  0.333333 -0.000000      2.000000
 -0.333333  0.333333  0.000000      2.000000
  0.000000  0.000000  0.333333      2.000000
  0.333333  0.000000  0.333333      2.000000
 -0.333333  0.000000  0.333333      2.000000
  0.000000  0.333333  0.333333      2.000000
  0.333333  0.333333  0.333333      2.000000
 -0.333333  0.333333  0.333333      2.000000
  0.000000 -0.333333  0.333333      2.000000
  0.333333 -0.333333  0.333333      2.000000
 -0.333333 -0.333333  0.333333      2.000000

 Following cartesian coordinates:
[...]
   0.697E+01 -.119E+02 0.513E+00   -.679E+01 0.116E+02 -.577E+00   -.172E+00 0.247E+00 0.682E-01   -.897E-04 -.932E-03 -.342E-02
   0.693E+01 -.118E+02 0.518E+00   -.676E+01 0.115E+02 -.583E+00   -.173E+00 0.250E+00 0.680E-01   -.151E-03 0.540E-04 -.272E-02
   0.694E+01 -.118E+02 0.519E+00   -.677E+01 0.115E+02 -.583E+00   -.173E+00 0.250E+00 0.681E-01   0.382E-03 -.378E-03 -.352E-02
   0.694E+01 -.118E+02 0.520E+00   -.677E+01 0.115E+02 -.583E+00   -.173E+00 0.250E+00 0.681E-01   -.879E-03 -.905E-03 -.477E-02
   0.694E+01 -.118E+02 0.516E+00   -.677E+01 0.115E+02 -.587E+00   -.173E+00 0.250E+00 0.680E-01   0.344E-04 -.105E-02 0.341E-02
   0.694E+01 -.118E+02 0.510E+00   -.677E+01 0.115E+02 -.581E+00   -.173E+00 0.250E+00 0.679E-01   0.346E-03 -.317E-03 0.296E-02
   0.694E+01 -.118E+02 0.511E+00   -.677E+01 0.115E+02 -.584E+00   -.173E+00 0.250E+00 0.679E-01   0.119E-02 -.781E-03 0.456E-02
   0.694E+01 -.118E+02 0.511E+00   -.677E+01 0.115E+02 -.582E+00   -.173E+00 0.250E+00 0.679E-01   -.738E-03 -.794E-03 0.390E-02
   0.697E+01 0.118E+02 0.518E+00   -.680E+01 -.116E+02 -.583E+00   -.172E+00 -.249E+00 0.675E-01   0.127E-03 -.178E-03 -.240E-02
   0.685E+01 0.117E+02 0.513E+00   -.667E+01 -.115E+02 -.578E+00   -.175E+00 -.251E+00 0.682E-01   0.220E-03 0.655E-03 -.271E-02
   0.694E+01 0.118E+02 0.521E+00   -.677E+01 -.115E+02 -.583E+00   -.173E+00 -.250E+00 0.681E-01   0.264E-03 0.123E-02 -.515E-02
   0.694E+01 0.118E+02 0.518E+00   -.677E+01 -.115E+02 -.583E+00   -.173E+00 -.250E+00 0.681E-01   0.166E-04 0.344E-03 -.273E-02
   0.695E+01 0.118E+02 0.516E+00   -.677E+01 -.115E+02 -.587E+00   -.173E+00 -.250E+00 0.680E-01   -.743E-04 0.573E-03 0.263E-02
   0.694E+01 0.118E+02 0.510E+00   -.677E+01 -.115E+02 -.580E+00   -.173E+00 -.250E+00 0.680E-01   -.301E-03 -.371E-04 0.236E-02
   0.694E+01 0.118E+02 0.510E+00   -.677E+01 -.115E+02 -.583E+00   -.173E+00 -.250E+00 0.679E-01   -.125E-02 0.101E-02 0.484E-02
   0.694E+01 0.118E+02 0.512E+00   -.677E+01 -.115E+02 -.583E+00   -.173E+00 -.250E+00 0.680E-01   0.927E-03 0.685E-03 0.331E-02
   0.697E+01 0.117E+02 0.522E+00   -.680E+01 -.114E+02 -.589E+00   -.172E+00 -.254E+00 0.685E-01   -.249E-03 -.114E-02 -.205E-02
   0.693E+01 0.118E+02 0.519E+00   -.676E+01 -.115E+02 -.583E+00   -.173E+00 -.250E+00 0.680E-01   0.141E-03 -.948E-03 -.381E-02
   0.694E+01 0.117E+02 0.520E+00   -.677E+01 -.115E+02 -.583E+00   -.173E+00 -.250E+00 0.681E-01   0.628E-03 -.262E-03 -.482E-02
   0.694E+01 0.118E+02 0.519E+00   -.677E+01 -.115E+02 -.583E+00   -.173E+00 -.250E+00 0.681E-01   -.105E-02 -.327E-03 -.362E-02
   0.694E+01 0.118E+02 0.515E+00   -.677E+01 -.115E+02 -.586E+00   -.173E+00 -.250E+00 0.680E-01   0.835E-03 -.606E-03 0.262E-02
   0.694E+01 0.118E+02 0.509E+00   -.677E+01 -.115E+02 -.580E+00   -.173E+00 -.250E+00 0.680E-01   -.702E-03 -.123E-02 0.356E-02
   0.694E+01 0.118E+02 0.511E+00   -.677E+01 -.115E+02 -.584E+00   -.173E+00 -.250E+00 0.679E-01   0.279E-03 -.415E-03 0.516E-02
   0.694E+01 0.118E+02 0.512E+00   -.677E+01 -.115E+02 -.583E+00   -.173E+00 -.250E+00 0.679E-01   0.282E-03 0.146E-03 0.338E-02
   0.368E+02 -.695E+02 -.341E+03   -.395E+02 0.737E+02 0.355E+03   0.274E+01 -.411E+01 -.145E+02   0.445E-03 0.359E-03 0.789E-02
   0.367E+02 -.695E+02 -.341E+03   -.395E+02 0.736E+02 0.355E+03   0.274E+01 -.411E+01 -.145E+02   -.503E-03 0.101E-02 0.880E-02
   0.367E+02 -.696E+02 -.341E+03   -.395E+02 0.737E+02 0.355E+03   0.274E+01 -.411E+01 -.145E+02   -.530E-02 0.233E-03 0.122E-01
   0.367E+02 -.695E+02 -.341E+03   -.395E+02 0.737E+02 0.355E+03   0.274E+01 -.411E+01 -.145E+02   -.198E-03 -.217E-02 0.918E-02
   0.368E+02 -.695E+02 -.341E+03   -.395E+02 0.737E+02 0.355E+03   0.274E+01 -.411E+01 -.145E+02   -.742E-03 -.853E-02 -.537E-02
   0.367E+02 -.696E+02 -.341E+03   -.394E+02 0.737E+02 0.355E+03   0.273E+01 -.411E+01 -.145E+02   0.366E-02 -.183E-02 -.450E-02
   0.367E+02 -.696E+02 -.341E+03   -.395E+02 0.737E+02 0.355E+03   0.274E+01 -.411E+01 -.145E+02   0.612E-02 -.332E-02 -.111E-01
   0.368E+02 -.695E+02 -.341E+03   -.395E+02 0.737E+02 0.355E+03   0.274E+01 -.411E+01 -.145E+02   -.471E-02 -.317E-02 -.413E-02
   0.367E+02 -.695E+02 -.341E+03   -.395E+02 0.736E+02 0.355E+03   0.274E+01 -.411E+01 -.145E+02   0.288E-02 0.129E-02 -.240E-03
   0.367E+02 -.695E+02 -.341E+03   -.395E+02 0.736E+02 0.355E+03   0.273E+01 -.411E+01 -.145E+02   -.299E-02 0.122E-02 0.752E-02
   0.367E+02 -.696E+02 -.341E+03   -.395E+02 0.737E+02 0.355E+03   0.274E+01 -.411E+01 -.145E+02   0.530E-02 0.750E-03 0.817E-02
   0.367E+02 -.696E+02 -.341E+03   -.395E+02 0.737E+02 0.355E+03   0.274E+01 -.411E+01 -.145E+02   0.863E-04 -.126E-02 0.370E-02
[...]
   0.207E+03 -.341E-01 0.404E+01   -.208E+03 0.508E-01 -.418E+01   0.152E+01 -.107E-03 0.132E+00   -.932E-02 -.161E-01 0.271E-02
   0.207E+03 -.480E-02 0.407E+01   -.208E+03 0.193E-01 -.420E+01   0.152E+01 0.190E-03 0.132E+00   0.263E-02 -.140E-01 -.964E-03
   0.207E+03 -.271E-01 0.405E+01   -.208E+03 0.408E-01 -.418E+01   0.152E+01 -.381E-03 0.132E+00   -.280E-03 -.129E-01 -.538E-03
   0.207E+03 -.168E-01 0.407E+01   -.208E+03 0.216E-01 -.420E+01   0.152E+01 -.172E-03 0.132E+00   0.632E-02 -.453E-02 -.203E-02
   0.207E+03 -.534E-01 0.414E+01   -.208E+03 0.580E-01 -.427E+01   0.152E+01 -.629E-03 0.133E+00   0.167E-01 -.345E-02 -.268E-02
   0.207E+03 -.927E-04 0.410E+01   -.208E+03 0.985E-02 -.423E+01   0.152E+01 0.819E-04 0.132E+00   -.113E-01 -.960E-02 -.194E-03
   0.207E+03 0.895E-01 0.415E+01   -.208E+03 -.989E-01 -.428E+01   0.152E+01 0.194E-03 0.134E+00   0.292E-02 0.983E-02 -.933E-03
   0.207E+03 0.176E+00 0.395E+01   -.208E+03 -.192E+00 -.407E+01   0.152E+01 0.646E-02 0.128E+00   -.781E-02 0.378E-02 0.127E-02
   0.207E+03 -.438E-01 0.409E+01   -.208E+03 0.362E-01 -.422E+01   0.152E+01 -.268E-03 0.132E+00   0.414E-02 0.768E-02 0.136E-02
   0.207E+03 -.500E-01 0.409E+01   -.208E+03 0.383E-01 -.422E+01   0.152E+01 -.352E-03 0.132E+00   -.501E-02 0.120E-01 -.732E-03
   0.207E+03 0.183E+00 0.396E+01   -.208E+03 -.197E+00 -.408E+01   0.152E+01 0.581E-02 0.129E+00   -.774E-02 0.293E-02 0.606E-03
   0.207E+03 0.720E-01 0.413E+01   -.208E+03 -.832E-01 -.426E+01   0.152E+01 0.101E-05 0.133E+00   0.567E-02 0.110E-01 -.198E-02
   0.207E+03 -.528E-01 0.409E+01   -.208E+03 0.384E-01 -.422E+01   0.152E+01 -.344E-03 0.132E+00   0.101E-01 0.145E-01 -.425E-03
   0.207E+03 -.391E-01 0.409E+01   -.208E+03 0.354E-01 -.422E+01   0.152E+01 -.162E-03 0.132E+00   -.675E-02 0.386E-02 -.162E-02
   0.748E+01 0.495E-01 0.407E+02   -.398E-12 -.284E-12 -.143E-10   -.742E+01 -.627E-01 -.406E+02   -.149E-01 0.124E-01 -.126E-01

 POSITION                                       TOTAL-FORCE (eV/Angst)
      2.47618      4.22751      0.11181        -0.018818     -0.023281      0.006579
      7.34781      4.21885      0.11181         0.001592     -0.000112      0.002018
      2.47118     12.65655      0.11181         0.001331     -0.000027      0.001941
      7.34781     12.65655      0.11181         0.001412     -0.000027      0.002055
      0.84843      4.21885      5.11361         0.001311     -0.000081      0.001985
      5.72506      4.21885      5.11361         0.001419     -0.000145      0.001855
      0.84843     12.65655      5.11361         0.001353     -0.000068      0.001798
      5.72506     12.65655      5.11361         0.001417      0.000003      0.001998
      0.03286      0.00000      0.11181         0.001468      0.000211      0.002112
      4.90950      0.00000      0.11181         0.001329      0.000105      0.002046
      0.03286      8.43770      0.11181         0.001317      0.000195      0.001963
      4.90950      8.43770      0.11181         0.001450      0.000300      0.002179
     -1.58989      0.00000      5.11361         0.001405      0.000017      0.001756
      3.28674      0.00000      5.11361         0.001379      0.000036      0.001889
     -1.58989      8.43770      5.11361         0.001350      0.000099      0.001945
      3.28674      8.43770      5.11361         0.001433      0.000091      0.001738
      4.84131      5.64946      0.00960         0.007805      0.004759     -0.000329
      9.71795      5.64946      0.00960         0.001855      0.001451      0.000182
      4.84131     14.08717      0.00960         0.002400      0.002465      0.000156
      9.71795     14.08717      0.00960         0.002342      0.002408      0.000057
      3.21856      5.64946      5.01140         0.002381      0.002322      0.000011
      8.09520      5.64946      5.01140         0.002436      0.002344      0.000024
      3.21856     14.08717      5.01140         0.002463      0.002499     -0.000055
      8.09520     14.08717      5.01140         0.002367      0.002398     -0.000119
      2.40300      1.43061      0.00960         0.001907      0.008003      0.000249
      7.27963      1.43061      0.00960         0.002469      0.002429     -0.000004
      2.40300      9.86831      0.00960         0.002425      0.002519      0.000070
      7.27963      9.86831      0.00960         0.002430      0.002468      0.000190
      0.78024      1.43061      5.01140         0.002364      0.002500     -0.000087
      5.65688      1.43061      5.01140         0.002364      0.002436      0.000077
      0.78024      9.86831      5.01140         0.002303      0.002459     -0.000100
      5.65688      9.86831      5.01140         0.002401      0.002487     -0.000070
      4.84131      2.78824      0.00960         0.001471     -0.003511      0.000235
      9.71795      2.78824      0.00960         0.006259     -0.000924      0.000099
      4.84131     11.22594      0.00960         0.002373     -0.002442      0.000193
      9.71795     11.22594      0.00960         0.002389     -0.002357      0.000040
      3.21856      2.78824      5.01140         0.002379     -0.002463     -0.000031
      8.09520      2.78824      5.01140         0.002473     -0.002425      0.000044
      3.21856     11.22594      5.01140         0.002453     -0.002426     -0.000166
      8.09520     11.22594      5.01140         0.002385     -0.002387     -0.000033
      2.40300      7.00709      0.00960         0.001564      0.003147     -0.000408
      7.27963      7.00709      0.00960         0.002450     -0.002373      0.000098
      2.40300     15.44479      0.00960         0.002371     -0.002287      0.000200
      7.27963     15.44479      0.00960         0.002454     -0.002363      0.000041
      0.78024      7.00709      5.01140         0.002317     -0.002446      0.000011
      5.65688      7.00709      5.01140         0.002423     -0.002390     -0.000035
      0.78024     15.44479      5.01140         0.002367     -0.002378     -0.000162
      5.65688     15.44479      5.01140         0.002320     -0.002400     -0.000034
      2.40874      1.42095      3.71309         0.000490     -0.000457      0.001553
      7.28538      1.42095      3.71309         0.000290     -0.000152      0.001327
      2.40874      9.85865      3.71309         0.000433     -0.000368      0.001352
      7.28538      9.85865      3.71309         0.000385     -0.000306      0.001508
      0.78599      1.42095      8.71489         0.000892     -0.000619      0.000582
      5.66263      1.42095      8.71489         0.000172     -0.000362      0.001176
      0.78599      9.85865      8.71489         0.000379     -0.000237      0.001648
      5.66263      9.85865      8.71489         0.000409     -0.000308      0.001501
     -0.02957      5.63980      3.71309         0.000426     -0.000104      0.001389
      4.84706      5.63980      3.71309         0.000168      0.000101      0.001167
     -0.02957     14.07750      3.71309         0.000414     -0.000267      0.001433
      4.84706     14.07750      3.71309         0.000436     -0.000374      0.001446
[...]
      6.69474      0.00000      2.53122        -0.001435     -0.000226      0.001071
      1.81811      8.43770      2.53122        -0.001144      0.000538      0.001361
      6.69474      8.43770      2.53122        -0.001332      0.000666      0.001207
      0.19536      0.00000      7.53301        -0.002767      0.000479      0.001602
      5.07199      0.00000      7.53301        -0.002720      0.000042      0.001366
      0.19536      8.43770      7.53301        -0.002973      0.000602      0.000787
      5.07199      8.43770      7.53301        -0.002102      0.000246      0.001165
     -0.62021      4.21885      2.53122        -0.001022      0.000625      0.000761
      4.25643      4.21885      2.53122         0.000135     -0.005849      0.004209
     -0.62021     12.65655      2.53122        -0.001756     -0.000231      0.001141
      4.25643     12.65655      2.53122        -0.001713     -0.000077      0.001122
     -2.24296      4.21885      7.53301        -0.000889     -0.005275      0.004659
      2.63367      4.21885      7.53301        -0.001586     -0.000160      0.000730
     -2.24296     12.65655      7.53301        -0.002426     -0.000316      0.001250
      2.63367     12.65655      7.53301        -0.002495     -0.000005      0.001264
    total drift:                                0.049333     -0.000755      0.070045

  FREE ENERGIE OF THE ION-ELECTRON SYSTEM (eV)
  free  energy   TOTEN  =     -1439.64977820 eV

  energy  without entropy=    -1440.03911600  energy(sigma->0) =    -1439.77955746

volume of typ            1:    22.7 %

[...]

volume of typ            3:    29.4 %

total charge

# of ion       s       p       d       tot
    1        2.083   0.285   0.115   2.483
    2        2.083   0.285   0.115   2.484
    3        2.083   0.285   0.115   2.484
    4        2.083   0.285   0.115   2.484
    5        2.083   0.285   0.115   2.484
    6        2.083   0.285   0.115   2.484
    7        2.083   0.285   0.115   2.484
    8        2.083   0.285   0.115   2.484
    9        2.083   0.285   0.115   2.484
   10        2.083   0.285   0.115   2.484
   11        2.083   0.285   0.115   2.484
   12        2.083   0.285   0.115   2.484
   13        2.083   0.285   0.115   2.484
   14        2.083   0.285   0.115   2.484
   15        2.083   0.285   0.115   2.484
   16        2.083   0.285   0.115   2.484
   17        2.082   0.277   0.113   2.472
   18        2.082   0.276   0.113   2.471
   19        2.082   0.276   0.113   2.471
   20        2.082   0.276   0.113   2.471
   21        2.082   0.276   0.113   2.471
   22        2.082   0.276   0.113   2.471
   23        2.082   0.276   0.113   2.471
   24        2.082   0.276   0.113   2.471
   25        2.082   0.276   0.113   2.471
   26        2.082   0.276   0.113   2.471
   27        2.082   0.276   0.113   2.471
   28        2.082   0.276   0.113   2.471
   29        2.082   0.276   0.113   2.471
   30        2.082   0.276   0.113   2.471
   31        2.082   0.276   0.113   2.471
   32        2.082   0.276   0.113   2.471
   33        2.082   0.276   0.113   2.471
   34        2.082   0.276   0.113   2.471
   35        2.082   0.276   0.113   2.471
   36        2.082   0.276   0.113   2.471
   37        2.082   0.276   0.113   2.471
   38        2.082   0.276   0.113   2.471
   39        2.082   0.276   0.113   2.471
   40        2.082   0.276   0.113   2.471
   41        2.082   0.276   0.113   2.472
   42        2.082   0.276   0.113   2.471
   43        2.082   0.276   0.113   2.471
   44        2.082   0.276   0.113   2.471
   45        2.082   0.276   0.113   2.471
   46        2.082   0.276   0.113   2.471
   47        2.082   0.276   0.113   2.471
   48        2.082   0.276   0.113   2.471
   49        1.254   2.854   0.005   4.114
   50        1.254   2.854   0.005   4.114
   51        1.254   2.854   0.005   4.114
   52        1.254   2.854   0.005   4.114
   53        1.254   2.854   0.005   4.114
   54        1.254   2.854   0.005   4.114
   55        1.254   2.854   0.005   4.114
   56        1.254   2.854   0.005   4.114
   57        1.254   2.854   0.005   4.114
   58        1.254   2.854   0.005   4.114
   59        1.254   2.854   0.005   4.114
   60        1.254   2.854   0.005   4.114
[...]
  178        2.217   6.341   3.136  11.694
  179        2.217   6.341   3.136  11.694
  180        2.217   6.341   3.136  11.694
  181        2.217   6.341   3.136  11.694
  182        2.217   6.341   3.136  11.694
  183        2.217   6.341   3.136  11.694
  184        2.217   6.341   3.136  11.694
  185        2.217   6.341   3.136  11.694
  186        2.217   6.341   3.136  11.694
  187        2.217   6.341   3.136  11.694
  188        2.217   6.341   3.136  11.694
  189        2.217   6.341   3.136  11.694
  190        2.217   6.341   3.136  11.694
  191        2.217   6.341   3.136  11.694
  192        2.217   6.341   3.136  11.694
tot         326.67  591.95  156.51 1075.13